c colouring generated by benchmark framework
p edge 96 1368
v 1 1
v 2 3
v 3 7
v 4 4
v 5 5
v 6 10
v 7 8
v 8 9
v 9 0
v 10 11
v 11 2
v 12 6
v 13 11
v 14 4
v 15 6
v 16 8
v 17 3
v 18 0
v 19 2
v 20 5
v 21 7
v 22 1
v 23 10
v 24 9
v 25 8
v 26 7
v 27 0
v 28 2
v 29 6
v 30 11
v 31 9
v 32 1
v 33 10
v 34 3
v 35 4
v 36 12
v 37 9
v 38 2
v 39 5
v 40 3
v 41 0
v 42 1
v 43 6
v 44 12
v 45 4
v 46 7
v 47 8
v 48 11
v 49 12
v 50 8
v 51 1
v 52 6
v 53 2
v 54 4
v 55 3
v 56 7
v 57 11
v 58 0
v 59 9
v 60 10
v 61 6
v 62 9
v 63 3
v 64 7
v 65 10
v 66 8
v 67 5
v 68 0
v 69 1
v 70 2
v 71 11
v 72 4
v 73 10
v 74 1
v 75 4
v 76 0
v 77 9
v 78 2
v 79 12
v 80 11
v 81 5
v 82 8
v 83 7
v 84 3
v 85 7
v 86 6
v 87 2
v 88 11
v 89 1
v 90 3
v 91 4
v 92 10
v 93 9
v 94 12
v 95 0
v 96 8
